15
30
167 139 101 262 299 249 73 56 247 74 279 244 46 194 56 31 159 115 290 269 54 2 88 273 78 232 232 142 241 174 
96 200 185 197 72 248 297 197 210 16 193 194 27 257 239 292 25 220 123 34 29 65 242 62 243 35 241 234 184 56 
